% clingo version 5.6.2
% Reading from graph_partition.lp ...
% Solving...
% Answer: 1
ANSWER
partition(1,3). partition(2,2). partition(3,3). partition(4,3). partition(5,1). partition(6,2). edge_weight_sum(22). vertex_weight_diff_sum(4).
% 
% Models         : 1+
% Calls          : 1
% Time           : 2.790s (Solving: 0.02s 1st Model: 0.02s Unsat: 0.00s)
% CPU Time       : 2.790s
